p cnf 97 204
-17 -21 -53 0
-17 -21 -93 0
-17 -53 -93 0
-21 -53 -93 0
-1 -22 -41 0
-1 -22 -61 0
-1 -41 -61 0
-22 -41 -61 0
-45 -62 -73 0
-45 -62 -94 0
-45 -73 -94 0
-62 -73 -94 0
-25 -29 -63 0
-25 -29 -77 0
-25 -63 -77 0
-29 -63 -77 0
-30 -37 -85 0
-30 -37 -95 0
-30 -85 -95 0
-37 -85 -95 0
-26 -54 -65 0
-26 -54 -81 0
-26 -65 -81 0
-54 -65 -81 0
-38 -55 -78 0
-38 -55 -89 0
-38 -78 -89 0
-55 -78 -89 0
-9 -46 -66 0
-9 -46 -90 0
-9 -66 -90 0
-46 -66 -90 0
-13 -49 -74 0
-13 -49 -91 0
-13 -74 -91 0
-49 -74 -91 0
-2 -14 -18 0
-2 -14 -82 0
-2 -18 -82 0
-14 -18 -82 0
-27 -33 -47 0
-27 -33 -69 0
-27 -47 -69 0
-33 -47 -69 0
-3 -5 -92 0
-3 -5 -96 0
-3 -92 -96 0
-5 -92 -96 0
-31 -34 -50 0
-31 -34 -67 0
-31 -50 -67 0
-34 -50 -67 0
-19 -57 -68 0
-19 -57 -70 0
-19 -68 -70 0
-57 -68 -70 0
-4 -35 -58 0
-4 -35 -86 0
-4 -58 -86 0
-35 -58 -86 0
-6 -10 -36 0
-6 -10 -79 0
-6 -36 -79 0
-10 -36 -79 0
-15 -42 -48 0
-15 -42 -87 0
-15 -48 -87 0
-42 -48 -87 0
-39 -64 -71 0
-39 -64 -83 0
-39 -71 -83 0
-64 -71 -83 0
-7 -16 -28 0
-7 -16 -59 0
-7 -28 -59 0
-16 -28 -59 0
-32 -43 -56 0
-32 -43 -72 0
-32 -56 -72 0
-43 -56 -72 0
-23 -60 -75 0
-23 -60 -80 0
-23 -75 -80 0
-60 -75 -80 0
-8 -51 -84 0
-8 -51 -88 0
-8 -84 -88 0
-51 -84 -88 0
-11 -20 -44 0
-11 -20 -76 0
-11 -44 -76 0
-20 -44 -76 0
-12 -24 -40 0
-12 -24 -52 0
-12 -24 -97 0
-12 -40 -52 0
-12 -40 -97 0
-12 -52 -97 0
-24 -40 -52 0
-24 -40 -97 0
-24 -52 -97 0
-40 -52 -97 0
1 2 3 0
1 2 4 0
1 3 4 0
2 3 4 0
5 6 7 0
5 6 8 0
5 7 8 0
6 7 8 0
9 10 11 0
9 10 12 0
9 11 12 0
10 11 12 0
13 14 15 0
13 14 16 0
13 15 16 0
14 15 16 0
17 18 19 0
17 18 20 0
17 19 20 0
18 19 20 0
21 22 23 0
21 22 24 0
21 23 24 0
22 23 24 0
25 26 27 0
25 26 28 0
25 26 97 0
25 27 28 0
25 27 97 0
25 28 97 0
26 27 28 0
26 27 97 0
26 28 97 0
27 28 97 0
29 30 31 0
29 30 32 0
29 31 32 0
30 31 32 0
33 34 35 0
33 34 36 0
33 35 36 0
34 35 36 0
37 38 39 0
37 38 40 0
37 39 40 0
38 39 40 0
41 42 43 0
41 42 44 0
41 43 44 0
42 43 44 0
45 46 47 0
45 46 48 0
45 47 48 0
46 47 48 0
49 50 51 0
49 50 52 0
49 51 52 0
50 51 52 0
53 54 55 0
53 54 56 0
53 55 56 0
54 55 56 0
57 58 59 0
57 58 60 0
57 59 60 0
58 59 60 0
61 62 63 0
61 62 64 0
61 63 64 0
62 63 64 0
65 66 67 0
65 66 68 0
65 67 68 0
66 67 68 0
69 70 71 0
69 70 72 0
69 71 72 0
70 71 72 0
73 74 75 0
73 74 76 0
73 75 76 0
74 75 76 0
77 78 79 0
77 78 80 0
77 79 80 0
78 79 80 0
81 82 83 0
81 82 84 0
81 83 84 0
82 83 84 0
85 86 87 0
85 86 88 0
85 87 88 0
86 87 88 0
89 90 91 0
89 90 92 0
89 91 92 0
90 91 92 0
93 94 95 0
93 94 96 0
93 95 96 0
94 95 96 0
